SAT
-28 -31 -32 63 -9 -88 85 10 -8 -96 -56 82 80 -26 50 -2 -47 93 81 -49 25 54 -22 13 -86 -67 51 -6 -91 -40 87 -59 44 -43 15 -77 -57 55 -65 35 -76 -68 71 -23 7 -16 99 79 -48 53 -61 3 5 97 58 -90 95 38 -73 70 69 100 -1 -42 20 98 83 21 -92 -41 -72 -66 37 62 78 -60 -29 33 45 4 -19 14 -52 -18 17 27 -89 -30 11 -24 -34 12 -36 75 46 -74 -64 84 39 94 0
